TCS_Benchmarks/redos_fix/corpus2_output_distinct_4041_4040_0_0.smt2
(set-logic QF_S)
(declare-const x String)
(assert (str.in.re x (re.inter  (re.++ (re.+ (re.comp  (re.union  (str.to.re "\u{2f}")  (str.to.re "\u{3a}"))) ) (re.* (re.union (re.range "\u{00}" "\u{09}") (re.range "\u{0b}" "\u{0c}") (re.range "\u{0e}" "\u{84}") (re.range "\u{86}" "\u{ff}")) ))  (re.++ (re.+ (re.comp  (re.union  (str.to.re "\u{2f}")  (str.to.re "\u{3a}"))) ) (re.++  (re.++ (re.opt  (re.++  (str.to.re "\u{3a}") (re.+ (re.range "\u{30}" "\u{39}") )) ) (re.++  (str.to.re "\u{20}") (re.++  (str.to.re "\u{20}") (re.++  (str.to.re "\u{20}") (re.++  (str.to.re "\u{20}") (re.++  (str.to.re "\u{20}") (re.++  (str.to.re "\u{20}") (re.++  (str.to.re "\u{20}") (re.++  (str.to.re "\u{20}") (re.++  (str.to.re "\u{20}") (re.++  (str.to.re "\u{20}") (re.++  (str.to.re "\u{20}") (re.++  (str.to.re "\u{20}") (re.++  (str.to.re "\u{20}") (re.++  (str.to.re "\u{20}") (re.++  (str.to.re "\u{20}") (re.++  (str.to.re "\u{20}") (re.++  (str.to.re "\u{20}") (re.++  (str.to.re "\u{20}") (re.++  (str.to.re "\u{20}") (re.++  (str.to.re "\u{23}") (re.++  (str.to.re "\u{20}") (re.++  (str.to.re "\u{68}") (re.++  (str.to.re "\u{6f}") (re.++  (str.to.re "\u{73}") (re.++  (str.to.re "\u{74}") (re.++  (str.to.re "\u{2c}") (re.++  (str.to.re "\u{20}") (re.++  (str.to.re "\u{70}") (re.++  (str.to.re "\u{6f}") (re.++  (str.to.re "\u{72}") (re.++  (str.to.re "\u{74}") (re.++  (str.to.re "\u{20}") (re.++  (re.++  (str.to.re "\u{6f}") (re.++  (str.to.re "\u{70}") (re.++  (str.to.re "\u{74}") (re.++  (str.to.re "\u{69}") (re.++  (str.to.re "\u{6f}") (re.++  (str.to.re "\u{6e}") (re.++  (str.to.re "\u{61}")  (str.to.re "\u{6c}")))))))) (re.++  (str.to_re "\u{0A}") (re.++  (str.to.re "\u{20}") (re.++  (str.to.re "\u{20}") (re.++  (str.to.re "\u{20}") (re.++  (str.to.re "\u{20}") (re.++  (str.to.re "\u{20}") (re.++  (str.to.re "\u{20}") (re.++  (str.to.re "\u{20}") (re.++  (str.to.re "\u{20}") (re.++  (str.to.re "\u{20}") (re.++  (str.to.re "\u{20}") (re.++  (str.to.re "\u{20}") (re.++  (str.to.re "\u{20}") (re.++  (str.to.re "\u{20}") (re.++  (str.to.re "\u{20}") (re.++  (str.to.re "\u{20}") (re.++  (str.to.re "\u{20}") (re.++  (str.to.re "\u{20}") (re.++  (str.to.re "\u{20}") (re.++  (str.to.re "\u{20}") (re.++  (str.to.re "\u{20}") (re.++  (str.to.re "\u{20}") (re.++  (str.to.re "\u{20}") (re.++  (str.to.re "\u{20}") (re.++  (str.to.re "\u{20}")  (str.to.re "\u{2f}")))))))))))))))))))))))))))))))))))))))))))))))))))))))))))) (re.* (re.union (re.range "\u{00}" "\u{09}") (re.range "\u{0b}" "\u{0c}") (re.range "\u{0e}" "\u{84}") (re.range "\u{86}" "\u{ff}")) ))) )))
(check-sat)
(get-model)