TCS_Benchmarks/redos_fix/corpus2_output_distinct_4041_4040_0_0.txt
([^\/:]+)(.*)
([^\/:]+)((:(\d+))?                   # host, port (optional)\n                        \/)(.*)